321 5
10 10 10 10 10 

0 0 0 0 0 0 3 2 14 46 
0 0 0 0 0 0 3 3 6 7 
6 0 2 0 0 0 1 4 
3 0 8 0 0 0 1 5 
7 0 7 0 0 0 2 10 8 
10 0 3 0 0 0 1 8 
4 0 8 0 0 0 1 8 
9 0 7 0 0 0 1 9 
5 0 10 0 0 0 1 11 
8 0 10 0 0 0 1 11 
8 0 10 0 0 0 2 12 142 
7 0 10 0 0 0 1 13 
0 0 0 0 0 0 2 78 90 
0 0 0 0 0 0 2 15 41 
1 0 4 2 0 2 1 16 
10 0 6 9 0 3 1 17 
9 0 8 10 0 10 1 18 
9 0 4 5 0 9 1 19 
10 0 8 10 0 6 2 31 20 
8 0 9 10 0 4 2 21 214 
6 0 10 8 0 10 1 22 
1 0 8 10 0 8 3 30 25 23 
4 0 8 10 0 9 2 27 24 
10 0 9 10 0 6 3 33 29 26 
7 0 9 5 0 10 2 33 32 
5 0 6 10 0 9 1 28 
2 0 6 9 0 10 1 28 
8 0 6 5 0 7 1 32 
1 0 8 7 0 8 1 32 
3 0 7 7 0 10 1 33 
5 0 7 10 0 8 1 32 
4 0 6 8 0 10 1 34 
5 0 7 3 0 9 1 34 
2 0 5 6 0 6 1 35 
9 0 9 4 0 7 2 44 36 
3 0 6 8 0 4 1 37 
2 0 9 5 0 4 1 38 
1 0 9 10 0 7 1 39 
2 0 10 6 0 5 1 40 
5 0 7 6 0 10 1 42 
3 0 8 7 0 9 1 42 
10 0 6 10 0 7 1 43 
6 0 10 6 0 10 1 45 
8 0 10 9 0 8 1 45 
0 0 0 0 0 0 1 160 
0 0 0 0 0 0 2 47 76 
9 0 2 1 5 0 1 48 
4 0 9 8 5 0 1 49 
3 0 3 6 10 0 1 50 
9 0 10 7 9 0 2 51 121 
6 0 6 10 6 0 2 75 52 
5 0 9 4 8 0 1 53 
10 0 10 5 4 0 1 54 
8 0 7 7 8 0 5 74 73 70 60 55 
4 0 9 9 5 0 1 56 
9 0 10 10 7 0 2 62 57 
6 0 9 9 8 0 1 58 
4 0 7 10 6 0 1 59 
6 0 10 10 8 0 1 61 
5 0 6 8 4 0 1 62 
6 0 5 8 2 0 1 63 
1 0 6 7 10 0 1 63 
4 0 7 10 10 0 2 72 64 
1 0 8 8 10 0 1 65 
8 0 10 10 5 0 1 66 
4 0 8 9 8 0 1 67 
5 0 5 5 10 0 1 68 
1 0 8 9 7 0 1 69 
7 0 6 4 7 0 1 71 
9 0 7 10 7 0 1 71 
7 0 7 7 10 0 1 77 
7 0 10 7 10 0 1 77 
4 0 10 7 10 0 1 77 
2 0 5 7 7 0 1 77 
9 0 6 6 9 0 1 77 
5 0 10 7 10 0 1 77 
0 0 0 0 0 0 1 160 
0 0 0 0 0 0 1 79 
8 0 0 0 0 2 1 80 
8 0 0 0 0 5 3 84 81 210 
10 0 0 0 0 9 1 82 
6 0 0 0 0 7 2 85 83 
9 0 0 0 0 10 1 86 
5 0 0 0 0 10 1 85 
10 0 0 0 0 7 1 88 
1 0 0 0 0 8 1 87 
3 0 0 0 0 7 1 89 
4 0 0 0 0 10 1 89 
0 0 0 0 0 0 4 112 124 136 148 
0 0 0 0 0 0 4 91 108 109 110 
2 0 0 6 1 0 1 92 
6 0 0 7 10 0 1 93 
1 0 0 7 8 0 1 94 
4 0 0 5 4 0 2 107 95 
7 0 0 10 9 0 1 96 
8 0 0 5 6 0 1 97 
2 0 0 7 7 0 1 98 
5 0 0 8 8 0 1 99 
6 0 0 6 10 0 1 100 
5 0 0 8 5 0 2 106 101 
7 0 0 6 8 0 1 102 
2 0 0 10 7 0 1 103 
8 0 0 7 7 0 1 104 
4 0 0 9 10 0 1 105 
9 0 0 9 10 0 1 111 
2 0 0 10 9 0 1 111 
10 0 0 4 9 0 1 111 
3 0 0 7 3 0 2 111 138 
9 0 0 10 10 0 1 111 
6 0 0 9 9 0 1 111 
0 0 0 0 0 0 1 160 
0 0 0 0 0 0 3 113 118 120 
7 0 5 0 0 0 2 122 114 
9 0 6 0 0 0 1 115 
2 0 4 0 0 0 1 116 
3 0 10 0 0 0 1 117 
9 0 9 0 0 0 2 119 215 
6 0 7 0 0 0 1 119 
8 0 8 0 0 0 1 121 
1 0 10 0 0 0 1 121 
7 0 10 0 0 0 1 123 
2 0 6 0 0 0 1 123 
0 0 0 0 0 0 1 160 
0 0 0 0 0 0 3 125 127 129 
8 0 2 0 0 0 1 126 
10 0 5 0 0 0 2 134 128 
4 0 7 0 0 0 2 134 128 
7 0 9 0 0 0 1 130 
10 0 10 0 0 0 1 130 
6 0 9 0 0 0 1 131 
10 0 10 0 0 0 1 132 
6 0 8 0 0 0 2 133 295 
6 0 9 0 0 0 1 135 
1 0 6 0 0 0 1 135 
0 0 0 0 0 0 1 160 
0 0 0 0 0 0 2 137 140 
3 0 0 4 0 0 2 142 138 
6 0 0 5 0 0 1 139 
7 0 0 10 0 0 1 141 
4 0 0 8 0 0 2 145 144 
4 0 0 8 0 0 2 143 258 
8 0 0 8 0 0 1 143 
10 0 0 10 0 0 1 144 
1 0 0 4 0 0 1 146 
5 0 0 10 0 0 1 146 
2 0 0 8 0 0 1 147 
0 0 0 0 0 0 1 160 
0 0 0 0 0 0 3 149 153 154 
6 0 5 0 0 0 1 150 
7 0 6 0 0 0 1 151 
5 0 8 0 0 0 1 152 
9 0 10 0 0 0 2 158 155 
4 0 8 0 0 0 2 158 155 
7 0 6 0 0 0 2 158 157 
6 0 5 0 0 0 1 156 
9 0 9 0 0 0 1 157 
2 0 8 0 0 0 2 159 300 
3 0 10 0 0 0 1 159 
0 0 0 0 0 0 1 160 
0 0 0 0 0 0 5 161 183 205 217 239 
0 0 0 0 0 0 3 162 169 181 
2 0 0 0 3 2 1 163 
8 0 0 0 10 6 1 164 
1 0 0 0 4 8 1 165 
2 0 0 0 10 8 3 178 172 166 
6 0 0 0 5 7 1 167 
7 0 0 0 6 5 1 168 
1 0 0 0 7 2 2 180 170 
2 0 0 0 10 9 2 178 170 
7 0 0 0 5 8 1 171 
10 0 0 0 10 10 1 173 
10 0 0 0 6 8 1 173 
1 0 0 0 8 9 1 174 
10 0 0 0 9 10 1 175 
7 0 0 0 9 10 1 176 
10 0 0 0 8 7 1 177 
3 0 0 0 9 7 1 179 
9 0 0 0 10 9 1 179 
7 0 0 0 3 8 2 182 300 
1 0 0 0 10 9 1 182 
7 0 0 0 8 8 1 182 
0 0 0 0 0 0 1 321 
0 0 0 0 0 0 3 184 190 194 
1 0 0 4 4 0 3 203 200 185 
10 0 0 9 6 0 1 186 
5 0 0 8 3 0 1 187 
3 0 0 8 10 0 1 188 
4 0 0 8 10 0 1 189 
7 0 0 9 3 0 1 191 
3 0 0 8 7 0 1 191 
1 0 0 3 8 0 1 192 
3 0 0 6 10 0 1 193 
7 0 0 5 8 0 2 202 195 
4 0 0 10 10 0 2 200 195 
9 0 0 7 6 0 1 196 
8 0 0 8 6 0 1 197 
7 0 0 6 10 0 2 198 267 
2 0 0 9 6 0 1 199 
10 0 0 10 8 0 1 201 
6 0 0 8 10 0 1 201 
2 0 0 6 10 0 1 204 
1 0 0 9 8 0 1 204 
9 0 0 9 7 0 1 204 
0 0 0 0 0 0 1 321 
0 0 0 0 0 0 2 206 208 
5 2 0 0 0 0 1 207 
2 7 0 0 0 0 2 212 209 
9 6 0 0 0 0 3 215 212 210 
1 8 0 0 0 0 2 215 210 
9 8 0 0 0 0 1 211 
1 10 0 0 0 0 1 213 
2 5 0 0 0 0 1 213 
10 10 0 0 0 0 2 214 276 
4 10 0 0 0 0 1 216 
6 9 0 0 0 0 1 216 
0 0 0 0 0 0 5 261 273 285 297 309 
0 0 0 0 0 0 1 218 
6 0 0 7 2 0 2 221 219 
8 0 0 10 9 0 2 224 220 
3 0 0 4 6 0 1 222 
1 0 0 9 4 0 1 222 
6 0 0 10 9 0 1 223 
3 0 0 8 6 0 2 228 225 
4 0 0 10 3 0 1 225 
2 0 0 6 9 0 2 231 226 
8 0 0 6 6 0 1 227 
8 0 0 10 10 0 1 229 
10 0 0 6 10 0 1 229 
10 0 0 10 10 0 2 234 230 
1 0 0 5 7 0 2 232 283 
7 0 0 4 9 0 1 232 
9 0 0 6 8 0 1 233 
8 0 0 8 7 0 1 235 
9 0 0 10 10 0 1 235 
1 0 0 10 6 0 1 236 
5 0 0 7 10 0 1 237 
8 0 0 4 9 0 1 238 
0 0 0 0 0 0 1 321 
0 0 0 0 0 0 3 240 250 254 
7 0 0 4 0 2 1 241 
3 0 0 8 0 8 1 242 
6 0 0 8 0 8 1 243 
10 0 0 6 0 6 2 258 244 
8 0 0 6 0 4 1 245 
9 0 0 10 0 9 1 246 
8 0 0 6 0 7 2 257 247 
6 0 0 8 0 7 1 248 
8 0 0 9 0 10 1 249 
4 0 0 4 0 10 1 251 
2 0 0 9 0 9 2 259 253 
5 0 0 10 0 6 1 252 
9 0 0 5 0 3 1 253 
10 0 0 10 0 10 1 255 
3 0 0 10 0 6 1 255 
3 0 0 9 0 8 1 256 
2 0 0 9 0 7 1 260 
1 0 0 10 0 10 1 260 
10 0 0 6 0 10 1 260 
6 0 0 3 0 10 1 260 
0 0 0 0 0 0 1 321 
0 0 0 0 0 0 1 262 
7 0 0 0 1 0 1 263 
7 0 0 0 4 0 2 267 264 
9 0 0 0 5 0 2 266 265 
9 0 0 0 8 0 2 269 268 
5 0 0 0 9 0 2 269 268 
8 0 0 0 10 0 1 268 
5 0 0 0 10 0 1 270 
2 0 0 0 10 0 1 270 
3 0 0 0 8 0 1 271 
1 0 0 0 10 0 1 272 
0 0 0 0 0 0 1 321 
0 0 0 0 0 0 1 274 
7 0 2 0 0 0 2 277 275 
3 0 10 0 0 0 1 276 
10 0 4 0 0 0 2 279 278 
7 0 9 0 0 0 2 279 278 
6 0 10 0 0 0 2 281 280 
10 0 5 0 0 0 1 280 
1 0 6 0 0 0 1 282 
8 0 10 0 0 0 1 282 
6 0 10 0 0 0 1 283 
10 0 9 0 0 0 1 284 
0 0 0 0 0 0 1 321 
0 0 0 0 0 0 1 286 
3 0 0 0 0 3 3 289 288 287 
5 0 0 0 0 8 1 290 
10 0 0 0 0 4 1 290 
6 0 0 0 0 10 1 290 
5 0 0 0 0 10 2 293 291 
7 0 0 0 0 9 1 292 
5 0 0 0 0 10 1 294 
1 0 0 0 0 4 1 294 
5 0 0 0 0 7 1 295 
3 0 0 0 0 10 1 296 
0 0 0 0 0 0 1 321 
0 0 0 0 0 0 1 298 
6 0 4 0 0 0 1 299 
7 0 6 0 0 0 2 302 300 
1 0 6 0 0 0 1 301 
4 0 8 0 0 0 2 304 303 
6 0 9 0 0 0 1 303 
2 0 10 0 0 0 2 306 305 
3 0 6 0 0 0 2 306 305 
8 0 6 0 0 0 1 307 
10 0 10 0 0 0 1 307 
7 0 10 0 0 0 1 308 
0 0 0 0 0 0 1 321 
0 0 0 0 0 0 1 310 
6 0 0 3 0 0 2 312 311 
10 0 0 8 0 0 2 314 313 
10 0 0 7 0 0 2 315 314 
2 0 0 6 0 0 2 317 315 
6 0 0 6 0 0 2 317 316 
2 0 0 10 0 0 1 316 
4 0 0 9 0 0 1 318 
7 0 0 10 0 0 1 318 
6 0 0 10 0 0 1 319 
9 0 0 6 0 0 1 320 
0 0 0 0 0 0 1 321 
0 0 0 0 0 0 0 
